# Solution for model r3_t18_m1_2 Batch Number: 3
# Finished Task: 18 / 18
# Makespan: 720.0, Total Distance: 611.0, Total Time: 1.9571
# R O S F Batch
0 0 7 0.0 0.0 -1
1 1 13 0.0 0.0 -1
2 2 5 0.0 0.0 -1
3 2 -1 692.0 720.0 2
4 0 18 435.0 472.0 0
5 2 20 282.0 317.0 0
6 1 16 391.0 417.0 0
7 0 15 243.0 268.0 0
8 1 6 326.0 357.0 0
9 0 11 340.0 360.0 0
10 2 19 385.0 405.0 0
11 0 4 403.0 435.0 0
12 1 17 539.0 563.0 1
13 1 8 240.0 274.0 0
14 1 -1 697.0 720.0 2
15 0 9 288.0 326.0 0
16 1 12 461.0 481.0 0
17 1 14 626.0 665.0 2
18 0 -1 665.0 692.0 2
19 2 3 596.0 623.0 2
20 2 10 354.0 375.0 0
